NAME          DCAP_2_3_3_500_SS275
ROWS
 N  OBJ
 L  CON1
 L  CON2
 L  CON3
 L  CON4
 L  CON5
 L  CON6
 L  CON7
 L  CON8
 L  CON9
 L  CON10
 L  CON11
 L  CON12
 E  CON13
 E  CON14
 E  CON15
 E  CON16
 E  CON17
 E  CON18
 E  CON19
 E  CON20
 E  CON21
COLUMNS
    x[1,1]    OBJ       6.180167      CON1      1.000000    
    x[1,1]    CON7      -1.000000     CON8      -1.000000   
    x[1,1]    CON9      -1.000000   
    x[1,2]    OBJ       6.563535      CON2      1.000000    
    x[1,2]    CON8      -1.000000     CON9      -1.000000   
    x[1,3]    OBJ       7.443064      CON3      1.000000    
    x[1,3]    CON9      -1.000000   
    x[2,1]    OBJ       6.732585      CON4      1.000000    
    x[2,1]    CON10     -1.000000     CON11     -1.000000   
    x[2,1]    CON12     -1.000000   
    x[2,2]    OBJ       5.039546      CON5      1.000000    
    x[2,2]    CON11     -1.000000     CON12     -1.000000   
    x[2,3]    OBJ       6.054841      CON6      1.000000    
    x[2,3]    CON12     -1.000000   
    MARKER    'MARKER'                'INTORG'
    u[1,1]    OBJ       48.076654     CON1      -1.000000   
    u[1,2]    OBJ       20.066487     CON2      -1.000000   
    u[1,3]    OBJ       32.230043     CON3      -1.000000   
    u[2,1]    OBJ       49.996186     CON4      -1.000000   
    u[2,2]    OBJ       49.466655     CON5      -1.000000   
    u[2,3]    OBJ       27.484319     CON6      -1.000000   
    y[1,1,1]  OBJ       7.021569      CON7      1.395253    
    y[1,1,1]  CON13     1.000000    
    y[1,1,2]  OBJ       6.884133      CON8      0.953075    
    y[1,1,2]  CON14     1.000000    
    y[1,1,3]  OBJ       9.885203      CON9      1.452913    
    y[1,1,3]  CON15     1.000000    
    y[1,2,1]  OBJ       7.080185      CON7      0.910787    
    y[1,2,1]  CON16     1.000000    
    y[1,2,2]  OBJ       8.064176      CON8      1.252934    
    y[1,2,2]  CON17     1.000000    
    y[1,2,3]  OBJ       5.048454      CON9      0.559362    
    y[1,2,3]  CON18     1.000000    
    y[1,3,1]  OBJ       5.134393      CON7      1.143917    
    y[1,3,1]  CON19     1.000000    
    y[1,3,2]  OBJ       7.990271      CON8      1.399961    
    y[1,3,2]  CON20     1.000000    
    y[1,3,3]  OBJ       5.260308      CON9      1.331769    
    y[1,3,3]  CON21     1.000000    
    y[2,1,1]  OBJ       6.531452      CON10     1.395253    
    y[2,1,1]  CON13     1.000000    
    y[2,1,2]  OBJ       6.535227      CON11     0.953075    
    y[2,1,2]  CON14     1.000000    
    y[2,1,3]  OBJ       8.945481      CON12     1.452913    
    y[2,1,3]  CON15     1.000000    
    y[2,2,1]  OBJ       6.663003      CON10     0.910787    
    y[2,2,1]  CON16     1.000000    
    y[2,2,2]  OBJ       6.108569      CON11     1.252934    
    y[2,2,2]  CON17     1.000000    
    y[2,2,3]  OBJ       8.021007      CON12     0.559362    
    y[2,2,3]  CON18     1.000000    
    y[2,3,1]  OBJ       6.347875      CON10     1.143917    
    y[2,3,1]  CON19     1.000000    
    y[2,3,2]  OBJ       8.860186      CON11     1.399961    
    y[2,3,2]  CON20     1.000000    
    y[2,3,3]  OBJ       5.885709      CON12     1.331769    
    y[2,3,3]  CON21     1.000000    
    z[1,1]    OBJ       939.448233    CON13     1.000000    
    z[1,2]    OBJ       933.254748    CON14     1.000000    
    z[1,3]    OBJ       648.283431    CON15     1.000000    
    z[2,1]    OBJ       754.678694    CON16     1.000000    
    z[2,2]    OBJ       645.332711    CON17     1.000000    
    z[2,3]    OBJ       841.193320    CON18     1.000000    
    z[3,1]    OBJ       941.903542    CON19     1.000000    
    z[3,2]    OBJ       710.210391    CON20     1.000000    
    z[3,3]    OBJ       778.108268    CON21     1.000000    
    MARKER    'MARKER'                 'INTEND'
RHS
    RHS       CON1      -0.000000     CON2      -0.000000   
    RHS       CON3      -0.000000     CON4      -0.000000   
    RHS       CON5      -0.000000     CON6      -0.000000   
    RHS       CON7      -0.000000     CON8      -0.000000   
    RHS       CON9      -0.000000     CON10     -0.000000   
    RHS       CON11     -0.000000     CON12     -0.000000   
    RHS       CON13     1.000000      CON14     1.000000    
    RHS       CON15     1.000000      CON16     1.000000    
    RHS       CON17     1.000000      CON18     1.000000    
    RHS       CON19     1.000000      CON20     1.000000    
    RHS       CON21     1.000000    
BOUNDS
 BV BOUND     u[1,1]  
 BV BOUND     u[1,2]  
 BV BOUND     u[1,3]  
 BV BOUND     u[2,1]  
 BV BOUND     u[2,2]  
 BV BOUND     u[2,3]  
 BV BOUND     y[1,1,1]
 BV BOUND     y[1,1,2]
 BV BOUND     y[1,1,3]
 BV BOUND     y[1,2,1]
 BV BOUND     y[1,2,2]
 BV BOUND     y[1,2,3]
 BV BOUND     y[1,3,1]
 BV BOUND     y[1,3,2]
 BV BOUND     y[1,3,3]
 BV BOUND     y[2,1,1]
 BV BOUND     y[2,1,2]
 BV BOUND     y[2,1,3]
 BV BOUND     y[2,2,1]
 BV BOUND     y[2,2,2]
 BV BOUND     y[2,2,3]
 BV BOUND     y[2,3,1]
 BV BOUND     y[2,3,2]
 BV BOUND     y[2,3,3]
 BV BOUND     z[1,1]  
 BV BOUND     z[1,2]  
 BV BOUND     z[1,3]  
 BV BOUND     z[2,1]  
 BV BOUND     z[2,2]  
 BV BOUND     z[2,3]  
 BV BOUND     z[3,1]  
 BV BOUND     z[3,2]  
 BV BOUND     z[3,3]  
ENDATA
